WARNING: for repeatability, setting FPU to use double precision
============================[ Problem Statistics ]=============================
|                                                                             |
|  Number of variables:         33791                                         |
|  Number of clauses:          469186                                         |
|  Parse time:                   0.20 s                                       |
|  Eliminated clauses:           0.03 Mb                                      |
|  Simplification time:          0.33 s                                       |
|                                                                             |
============================[ Search Statistics ]==============================
| Conflicts |          ORIGINAL         |          LEARNT          | Progress |
|           |    Vars  Clauses Literals |    Limit  Clauses Lit/Cl |          |
===============================================================================
|       100 |    4677    66821   188267 |    24501      100     41 | 81.679 % |
|       250 |    4677    66821   188267 |    26951      250     42 | 81.679 % |
|       475 |    4677    66821   188267 |    29646      475     37 | 81.679 % |
|       812 |    4677    66821   188267 |    32610      812     38 | 81.679 % |
|      1318 |    4677    66821   188267 |    35871     1318     40 | 81.679 % |
|      2077 |    4677    66821   188267 |    39459     2077     42 | 81.679 % |
|      3216 |    4677    66821   188267 |    43405     3216     65 | 81.679 % |
|      4924 |    4677    66821   188267 |    47745     4924     67 | 81.679 % |
|      7486 |    4677    66821   188267 |    52520     7486     84 | 81.679 % |
|     11330 |    4677    66821   188267 |    57772    11330     82 | 81.679 % |
|     17096 |    4677    66821   188267 |    63549    17096     81 | 81.679 % |
|     25745 |    4677    66821   188267 |    69904    25745     82 | 81.679 % |
|     38719 |    4677    66821   188267 |    76894    38719     88 | 81.679 % |
===============================================================================
restarts              : 127
conflicts             : 42062          (21267 /sec)
decisions             : 243758         (0.00 % random) (123245 /sec)
propagations          : 3529930        (1784750 /sec)
conflict literals     : 4004375        (5.48 % deleted)
Memory used           : 70.00 MB
CPU time              : 1.97783 s

SATISFIABLE
WARNING: for repeatability, setting FPU to use double precision
============================[ Problem Statistics ]=============================
|                                                                             |
|  Number of variables:         33791                                         |
|  Number of clauses:          469186                                         |
|  Parse time:                   0.15 s                                       |
|  Eliminated clauses:           0.03 Mb                                      |
|  Simplification time:          0.24 s                                       |
|                                                                             |
============================[ Search Statistics ]==============================
| Conflicts |          ORIGINAL         |          LEARNT          | Progress |
|           |    Vars  Clauses Literals |    Limit  Clauses Lit/Cl |          |
===============================================================================
|       100 |    4677    66821   188267 |    24501      100     41 | 81.679 % |
|       250 |    4677    66821   188267 |    26951      250     42 | 81.679 % |
|       475 |    4677    66821   188267 |    29646      475     37 | 81.679 % |
|       812 |    4677    66821   188267 |    32610      812     38 | 81.679 % |
|      1318 |    4677    66821   188267 |    35871     1318     40 | 81.679 % |
|      2077 |    4677    66821   188267 |    39459     2077     42 | 81.679 % |
|      3216 |    4677    66821   188267 |    43405     3216     65 | 81.679 % |
|      4924 |    4677    66821   188267 |    47745     4924     67 | 81.679 % |
|      7486 |    4677    66821   188267 |    52520     7486     84 | 81.679 % |
|     11330 |    4677    66821   188267 |    57772    11330     82 | 81.679 % |
|     17096 |    4677    66821   188267 |    63549    17096     81 | 81.679 % |
|     25745 |    4677    66821   188267 |    69904    25745     82 | 81.679 % |
|     38719 |    4677    66821   188267 |    76894    38719     88 | 81.679 % |
===============================================================================
restarts              : 127
conflicts             : 42062          (30055 /sec)
decisions             : 243758         (0.00 % random) (174173 /sec)
propagations          : 3529930        (2522245 /sec)
conflict literals     : 4004375        (5.48 % deleted)
Memory used           : 70.00 MB
CPU time              : 1.39952 s

SATISFIABLE
